p edge 20 44 10
v 3 5 6 19
v 1 11
v 2 12 14
v 3 8 16 20
v 2 3 15
v 3 4 9 17
v 3 1 13 18
v 1 2
v 1 7
v 1 10
e 1 2
e 1 5
e 1 18
e 2 3
e 2 6
e 2 17
e 2 20
e 3 8
e 3 11
e 3 13
e 3 18
e 4 5
e 4 12
e 4 20
e 5 11
e 5 13
e 5 14
e 5 19
e 6 7
e 6 10
e 6 12
e 6 18
e 7 14
e 7 19
e 8 10
e 8 12
e 8 13
e 9 12
e 9 19
e 11 14
e 11 15
e 11 20
e 12 14
e 12 15
e 12 17
e 13 14
e 13 17
e 13 18
e 14 15
e 14 16
e 15 19
e 16 18
e 17 18
e 19 20
